0 1
0 2
0 24
1 0
1 21
1 27
2 0
2 23
2 29
3 4
3 7
3 33
4 3
4 16
4 17
5 6
5 7
5 10
6 5
6 11
6 17
7 3
7 5
7 14
7 15
8 9
8 10
8 40
9 8
9 11
9 18
10 5
10 8
10 11
11 6
11 9
11 10
12 13
12 136
13 12
13 20
13 21
14 7
14 33
14 40
15 7
15 17
16 4
16 141
17 4
17 6
17 15
18 9
18 19
19 18
19 20
20 13
20 19
21 1
21 13
21 22
22 21
22 196
22 197
23 2
23 28
24 0
24 197
24 213
25 26
25 66
26 25
26 207
26 234
27 1
28 23
28 29
28 30
29 2
29 28
29 46
30 28
30 31
31 30
32 33
32 38
33 3
33 14
33 32
33 141
34 35
34 63
34 67
35 34
36 37
37 36
37 43
37 49
38 32
38 39
39 38
39 40
39 42
40 8
40 14
40 39
40 140
41 42
41 43
41 48
42 39
42 41
42 136
42 137
43 37
43 41
43 51
44 45
44 46
44 47
45 44
46 29
46 44
46 138
46 139
47 44
47 48
47 50
48 41
48 47
48 51
49 37
50 47
50 52
51 43
51 48
51 57
52 50
52 53
52 54
53 52
54 52
54 55
54 56
55 54
55 56
55 58
56 54
56 55
57 51
57 60
57 61
58 55
58 59
58 72
59 58
60 57
60 62
60 75
61 57
61 62
61 154
62 60
62 61
62 64
63 34
63 146
63 147
64 62
64 65
65 64
65 67
66 25
67 34
67 65
67 68
67 70
68 67
68 69
68 70
69 68
69 71
69 74
70 67
70 68
70 71
70 153
71 69
71 70
71 155
72 58
72 79
73 74
73 77
73 85
74 69
74 73
74 152
75 60
75 76
76 75
76 77
76 78
77 73
77 76
77 150
77 151
78 76
78 79
78 83
79 72
79 78
79 82
80 81
80 92
80 155
81 80
82 79
82 83
82 93
83 78
83 82
83 86
84 85
85 73
85 84
86 83
86 87
86 88
87 86
88 86
88 94
88 96
89 90
90 89
90 155
90 156
91 92
92 80
92 91
92 155
93 82
93 95
93 102
94 88
94 95
94 96
95 93
95 94
95 106
96 88
96 94
96 97
96 98
97 96
97 99
97 103
98 96
98 99
98 100
99 97
99 98
99 101
100 98
100 101
100 109
101 99
101 100
101 103
102 93
102 104
103 97
103 101
103 105
104 102
104 107
104 108
105 103
105 106
105 111
106 95
106 105
106 107
107 104
107 106
107 108
108 104
108 107
108 115
109 100
110 111
110 112
110 117
111 105
111 110
111 159
112 110
112 113
112 120
113 112
114 115
114 116
114 118
115 108
115 114
115 157
116 114
116 158
117 110
117 118
117 119
118 114
118 117
118 119
119 117
119 118
119 121
120 112
120 122
120 126
121 119
121 123
121 125
122 120
123 121
123 124
123 125
124 123
124 126
124 127
125 121
125 123
126 120
126 124
126 143
127 124
128 129
128 133
128 160
129 128
129 142
130 131
130 132
130 162
131 130
131 161
131 162
132 130
132 133
132 134
133 128
133 132
134 132
134 165
135 136
135 138
136 12
136 42
136 135
137 42
137 141
137 146
138 46
138 135
139 46
139 235
140 40
141 16
141 33
141 137
142 129
142 143
142 144
142 145
143 126
143 142
143 148
143 164
144 142
144 148
144 149
145 142
146 63
146 137
147 63
148 143
148 144
148 163
149 144
149 166
150 77
151 77
152 74
153 70
154 61
155 71
155 80
155 90
155 92
156 90
157 115
158 116
159 111
160 128
160 161
161 131
161 160
161 162
162 130
162 131
162 161
163 148
164 143
165 134
166 149
167 168
167 169
167 170
168 167
168 169
168 171
169 167
169 168
169 173
170 167
170 171
170 177
171 168
171 170
171 244
172 173
172 176
172 184
173 169
173 172
173 243
174 175
175 174
175 186
175 240
176 172
176 181
176 184
177 170
177 178
177 181
178 177
178 180
178 183
179 180
179 182
179 252
180 178
180 179
180 249
181 176
181 177
181 183
182 179
182 201
182 257
183 178
183 181
183 229
184 172
184 176
184 188
185 186
186 175
186 185
186 194
187 188
187 189
187 209
188 184
188 187
188 214
188 218
189 187
189 192
189 204
190 191
191 190
191 236
191 237
192 189
192 204
192 209
193 194
193 203
193 205
194 186
194 193
194 239
195 196
195 197
195 234
196 22
196 195
196 236
197 22
197 24
197 195
198 199
198 233
199 198
199 209
199 250
200 201
200 202
200 231
201 182
201 200
201 215
201 230
202 200
202 257
202 261
203 193
203 206
203 247
204 189
204 192
204 232
205 193
205 206
205 207
206 203
206 205
207 26
207 205
207 208
208 207
208 245
209 187
209 192
209 199
210 211
211 210
211 212
212 211
212 227
212 247
212 251
213 24
214 188
215 201
216 233
217 218
217 221
217 229
218 188
218 217
218 221
219 220
219 232
220 219
220 233
221 217
221 218
221 232
222 223
222 228
223 222
223 225
224 225
224 226
225 223
225 224
225 227
226 224
226 227
227 212
227 225
227 226
228 222
229 183
229 217
229 230
230 201
230 229
230 231
231 200
231 230
231 261
232 204
232 219
232 221
233 198
233 216
233 220
234 26
234 195
234 235
234 236
235 139
235 234
236 191
236 196
236 234
237 191
237 238
237 245
238 237
238 239
239 194
239 238
240 175
240 241
241 240
241 242
241 250
242 241
242 243
243 173
243 242
244 171
244 252
244 266
245 208
245 237
245 246
246 245
247 203
247 212
247 248
248 247
249 180
250 199
250 241
251 212
252 179
252 244
252 256
253 254
253 255
253 258
254 253
255 253
255 259
255 264
256 252
256 257
256 262
257 182
257 202
257 256
258 253
258 259
258 267
259 255
259 258
259 262
259 263
260 261
261 202
261 231
261 260
261 263
262 256
262 259
263 259
263 261
263 268
264 255
264 265
264 266
265 264
265 266
266 244
266 264
266 265
267 258
267 268
268 263
268 267
